(declare-const y0 Real)
(declare-const y1 Real)
(declare-const y2 Real)
(declare-const y3 Real)
(declare-const y4 Real)
(declare-const y5 Real)
(declare-const y6 Real)
(declare-const y7 Real)
(declare-const y8 Real)
(declare-const y9 Real)
(declare-const y10 Real)
(declare-const y11 Real)
(declare-const y12 Real)
(declare-const y13 Real)
(declare-const y14 Real)
(declare-const y15 Real)
(declare-const y16 Real)
(declare-const y17 Real)
(assert (< (+ (+ (+ 56 y3) y0) y11) y15))
(assert (= y12 31))
(assert (< 85 11))
(assert (= (= false false) (< 43 70)))
(assert (< y14 (+ (+ y14 (+ 76 (+ 22 y13))) 61)))
(assert (< (+ 9 y9) (+ 70 34)))
(assert (< 46 y5))
(assert (= (< 23 93) true))
(assert (= (+ y0 (+ y14 32)) y1))
(check-sat)
